(set-logic QF_LRA)
(declare-fun T1 () Real )
(declare-fun T2 () Real )
(declare-fun T3 () Real )
(declare-fun T4 () Real )
(declare-fun T5 () Real )
(declare-fun T6 () Real )
(declare-fun T7 () Real )
(declare-fun T8 () Real )
(declare-fun T9 () Real )
(declare-fun T10 () Real )
(declare-fun Z () Real )
(assert ( and 
(or ( <= ( + T1 57 ) T2 ) ( <= ( + T2 55 ) T1 ) )
(or ( <= ( + T1 151 )  ( + T2 55 ) ) ( <= ( + T2 119 )( + T1 57 ) ) )
(or ( <= ( + T1 184 )  ( + T2 119 ) ) ( <= ( + T2 163 )( + T1 151 ) ) )
(or ( <= ( + T1 277 )  ( + T2 163 ) ) ( <= ( + T2 171 )( + T1 184 ) ) )
(or ( <= ( + T1 281 )  ( + T2 171 ) ) ( <= ( + T2 268 )( + T1 277 ) ) )
(or ( <= ( + T1 303 )  ( + T2 268 ) ) ( <= ( + T2 312 )( + T1 281 ) ) )
(or ( <= ( + T1 353 )  ( + T2 312 ) ) ( <= ( + T2 332 )( + T1 303 ) ) )
(or ( <= ( + T1 386 )  ( + T2 332 ) ) ( <= ( + T2 413 )( + T1 353 ) ) )
(or ( <= ( + T1 470 )  ( + T2 413 ) ) ( <= ( + T2 442 )( + T1 386 ) ) )
(or ( <= ( + T1 518 )  ( + T2 442 ) ) ( <= ( + T2 520 )( + T1 470 ) ) )
(or ( <= ( + T1 588 )  ( + T2 520 ) ) ( <= ( + T2 579 )( + T1 518 ) ) )
(or ( <= ( + T1 667 )  ( + T2 579 ) ) ( <= ( + T2 585 )( + T1 588 ) ) )
(or ( <= ( + T1 57 ) T3 ) ( <= ( + T3 14 ) T1 ) )
(or ( <= ( + T1 151 )  ( + T3 14 ) ) ( <= ( + T3 33 )( + T1 57 ) ) )
(or ( <= ( + T1 184 )  ( + T3 33 ) ) ( <= ( + T3 52 )( + T1 151 ) ) )
(or ( <= ( + T1 277 )  ( + T3 52 ) ) ( <= ( + T3 77 )( + T1 184 ) ) )
(or ( <= ( + T1 281 )  ( + T3 77 ) ) ( <= ( + T3 158 )( + T1 277 ) ) )
(or ( <= ( + T1 303 )  ( + T3 158 ) ) ( <= ( + T3 231 )( + T1 281 ) ) )
(or ( <= ( + T1 353 )  ( + T3 231 ) ) ( <= ( + T3 314 )( + T1 303 ) ) )
(or ( <= ( + T1 386 )  ( + T3 314 ) ) ( <= ( + T3 403 )( + T1 353 ) ) )
(or ( <= ( + T1 470 )  ( + T3 403 ) ) ( <= ( + T3 421 )( + T1 386 ) ) )
(or ( <= ( + T1 518 )  ( + T3 421 ) ) ( <= ( + T3 437 )( + T1 470 ) ) )
(or ( <= ( + T1 588 )  ( + T3 437 ) ) ( <= ( + T3 470 )( + T1 518 ) ) )
(or ( <= ( + T1 667 )  ( + T3 470 ) ) ( <= ( + T3 491 )( + T1 588 ) ) )
(or ( <= ( + T1 57 ) T4 ) ( <= ( + T4 89 ) T1 ) )
(or ( <= ( + T1 151 )  ( + T4 89 ) ) ( <= ( + T4 171 )( + T1 57 ) ) )
(or ( <= ( + T1 184 )  ( + T4 171 ) ) ( <= ( + T4 225 )( + T1 151 ) ) )
(or ( <= ( + T1 277 )  ( + T4 225 ) ) ( <= ( + T4 249 )( + T1 184 ) ) )
(or ( <= ( + T1 281 )  ( + T4 249 ) ) ( <= ( + T4 278 )( + T1 277 ) ) )
(or ( <= ( + T1 303 )  ( + T4 278 ) ) ( <= ( + T4 353 )( + T1 281 ) ) )
(or ( <= ( + T1 353 )  ( + T4 353 ) ) ( <= ( + T4 356 )( + T1 303 ) ) )
(or ( <= ( + T1 386 )  ( + T4 356 ) ) ( <= ( + T4 391 )( + T1 353 ) ) )
(or ( <= ( + T1 470 )  ( + T4 391 ) ) ( <= ( + T4 429 )( + T1 386 ) ) )
(or ( <= ( + T1 518 )  ( + T4 429 ) ) ( <= ( + T4 527 )( + T1 470 ) ) )
(or ( <= ( + T1 588 )  ( + T4 527 ) ) ( <= ( + T4 569 )( + T1 518 ) ) )
(or ( <= ( + T1 667 )  ( + T4 569 ) ) ( <= ( + T4 656 )( + T1 588 ) ) )
(or ( <= ( + T1 57 ) T5 ) ( <= ( + T5 93 ) T1 ) )
(or ( <= ( + T1 151 )  ( + T5 93 ) ) ( <= ( + T5 106 )( + T1 57 ) ) )
(or ( <= ( + T1 184 )  ( + T5 106 ) ) ( <= ( + T5 173 )( + T1 151 ) ) )
(or ( <= ( + T1 277 )  ( + T5 173 ) ) ( <= ( + T5 246 )( + T1 184 ) ) )
(or ( <= ( + T1 281 )  ( + T5 246 ) ) ( <= ( + T5 288 )( + T1 277 ) ) )
(or ( <= ( + T1 303 )  ( + T5 288 ) ) ( <= ( + T5 365 )( + T1 281 ) ) )
(or ( <= ( + T1 353 )  ( + T5 365 ) ) ( <= ( + T5 443 )( + T1 303 ) ) )
(or ( <= ( + T1 386 )  ( + T5 443 ) ) ( <= ( + T5 499 )( + T1 353 ) ) )
(or ( <= ( + T1 470 )  ( + T5 499 ) ) ( <= ( + T5 546 )( + T1 386 ) ) )
(or ( <= ( + T1 518 )  ( + T5 546 ) ) ( <= ( + T5 642 )( + T1 470 ) ) )
(or ( <= ( + T1 588 )  ( + T5 642 ) ) ( <= ( + T5 722 )( + T1 518 ) ) )
(or ( <= ( + T1 667 )  ( + T5 722 ) ) ( <= ( + T5 801 )( + T1 588 ) ) )
(or ( <= ( + T1 57 ) T6 ) ( <= ( + T6 68 ) T1 ) )
(or ( <= ( + T1 151 )  ( + T6 68 ) ) ( <= ( + T6 83 )( + T1 57 ) ) )
(or ( <= ( + T1 184 )  ( + T6 83 ) ) ( <= ( + T6 151 )( + T1 151 ) ) )
(or ( <= ( + T1 277 )  ( + T6 151 ) ) ( <= ( + T6 188 )( + T1 184 ) ) )
(or ( <= ( + T1 281 )  ( + T6 188 ) ) ( <= ( + T6 270 )( + T1 277 ) ) )
(or ( <= ( + T1 303 )  ( + T6 270 ) ) ( <= ( + T6 370 )( + T1 281 ) ) )
(or ( <= ( + T1 353 )  ( + T6 370 ) ) ( <= ( + T6 428 )( + T1 303 ) ) )
(or ( <= ( + T1 386 )  ( + T6 428 ) ) ( <= ( + T6 498 )( + T1 353 ) ) )
(or ( <= ( + T1 470 )  ( + T6 498 ) ) ( <= ( + T6 580 )( + T1 386 ) ) )
(or ( <= ( + T1 518 )  ( + T6 580 ) ) ( <= ( + T6 643 )( + T1 470 ) ) )
(or ( <= ( + T1 588 )  ( + T6 643 ) ) ( <= ( + T6 737 )( + T1 518 ) ) )
(or ( <= ( + T1 667 )  ( + T6 737 ) ) ( <= ( + T6 799 )( + T1 588 ) ) )
(or ( <= ( + T1 57 ) T7 ) ( <= ( + T7 89 ) T1 ) )
(or ( <= ( + T1 151 )  ( + T7 89 ) ) ( <= ( + T7 137 )( + T1 57 ) ) )
(or ( <= ( + T1 184 )  ( + T7 137 ) ) ( <= ( + T7 234 )( + T1 151 ) ) )
(or ( <= ( + T1 277 )  ( + T7 234 ) ) ( <= ( + T7 261 )( + T1 184 ) ) )
(or ( <= ( + T1 281 )  ( + T7 261 ) ) ( <= ( + T7 358 )( + T1 277 ) ) )
(or ( <= ( + T1 303 )  ( + T7 358 ) ) ( <= ( + T7 448 )( + T1 281 ) ) )
(or ( <= ( + T1 353 )  ( + T7 448 ) ) ( <= ( + T7 513 )( + T1 303 ) ) )
(or ( <= ( + T1 386 )  ( + T7 513 ) ) ( <= ( + T7 602 )( + T1 353 ) ) )
(or ( <= ( + T1 470 )  ( + T7 602 ) ) ( <= ( + T7 657 )( + T1 386 ) ) )
(or ( <= ( + T1 518 )  ( + T7 657 ) ) ( <= ( + T7 740 )( + T1 470 ) ) )
(or ( <= ( + T1 588 )  ( + T7 740 ) ) ( <= ( + T7 753 )( + T1 518 ) ) )
(or ( <= ( + T1 667 )  ( + T7 753 ) ) ( <= ( + T7 849 )( + T1 588 ) ) )
(or ( <= ( + T1 57 ) T8 ) ( <= ( + T8 11 ) T1 ) )
(or ( <= ( + T1 151 )  ( + T8 11 ) ) ( <= ( + T8 101 )( + T1 57 ) ) )
(or ( <= ( + T1 184 )  ( + T8 101 ) ) ( <= ( + T8 152 )( + T1 151 ) ) )
(or ( <= ( + T1 277 )  ( + T8 152 ) ) ( <= ( + T8 210 )( + T1 184 ) ) )
(or ( <= ( + T1 281 )  ( + T8 210 ) ) ( <= ( + T8 248 )( + T1 277 ) ) )
(or ( <= ( + T1 303 )  ( + T8 248 ) ) ( <= ( + T8 331 )( + T1 281 ) ) )
(or ( <= ( + T1 353 )  ( + T8 331 ) ) ( <= ( + T8 419 )( + T1 303 ) ) )
(or ( <= ( + T1 386 )  ( + T8 419 ) ) ( <= ( + T8 476 )( + T1 353 ) ) )
(or ( <= ( + T1 470 )  ( + T8 476 ) ) ( <= ( + T8 573 )( + T1 386 ) ) )
(or ( <= ( + T1 518 )  ( + T8 573 ) ) ( <= ( + T8 580 )( + T1 470 ) ) )
(or ( <= ( + T1 588 )  ( + T8 580 ) ) ( <= ( + T8 674 )( + T1 518 ) ) )
(or ( <= ( + T1 667 )  ( + T8 674 ) ) ( <= ( + T8 704 )( + T1 588 ) ) )
(or ( <= ( + T1 57 ) T9 ) ( <= ( + T9 7 ) T1 ) )
(or ( <= ( + T1 151 )  ( + T9 7 ) ) ( <= ( + T9 58 )( + T1 57 ) ) )
(or ( <= ( + T1 184 )  ( + T9 58 ) ) ( <= ( + T9 109 )( + T1 151 ) ) )
(or ( <= ( + T1 277 )  ( + T9 109 ) ) ( <= ( + T9 149 )( + T1 184 ) ) )
(or ( <= ( + T1 281 )  ( + T9 149 ) ) ( <= ( + T9 214 )( + T1 277 ) ) )
(or ( <= ( + T1 303 )  ( + T9 214 ) ) ( <= ( + T9 258 )( + T1 281 ) ) )
(or ( <= ( + T1 353 )  ( + T9 258 ) ) ( <= ( + T9 311 )( + T1 303 ) ) )
(or ( <= ( + T1 386 )  ( + T9 311 ) ) ( <= ( + T9 364 )( + T1 353 ) ) )
(or ( <= ( + T1 470 )  ( + T9 364 ) ) ( <= ( + T9 407 )( + T1 386 ) ) )
(or ( <= ( + T1 518 )  ( + T9 407 ) ) ( <= ( + T9 408 )( + T1 470 ) ) )
(or ( <= ( + T1 588 )  ( + T9 408 ) ) ( <= ( + T9 439 )( + T1 518 ) ) )
(or ( <= ( + T1 667 )  ( + T9 439 ) ) ( <= ( + T9 478 )( + T1 588 ) ) )
(or ( <= ( + T1 57 ) T10 ) ( <= ( + T10 91 ) T1 ) )
(or ( <= ( + T1 151 )  ( + T10 91 ) ) ( <= ( + T10 186 )( + T1 57 ) ) )
(or ( <= ( + T1 184 )  ( + T10 186 ) ) ( <= ( + T10 265 )( + T1 151 ) ) )
(or ( <= ( + T1 277 )  ( + T10 265 ) ) ( <= ( + T10 362 )( + T1 184 ) ) )
(or ( <= ( + T1 281 )  ( + T10 362 ) ) ( <= ( + T10 391 )( + T1 277 ) ) )
(or ( <= ( + T1 303 )  ( + T10 391 ) ) ( <= ( + T10 482 )( + T1 281 ) ) )
(or ( <= ( + T1 353 )  ( + T10 482 ) ) ( <= ( + T10 526 )( + T1 303 ) ) )
(or ( <= ( + T1 386 )  ( + T10 526 ) ) ( <= ( + T10 566 )( + T1 353 ) ) )
(or ( <= ( + T1 470 )  ( + T10 566 ) ) ( <= ( + T10 599 )( + T1 386 ) ) )
(or ( <= ( + T1 518 )  ( + T10 599 ) ) ( <= ( + T10 646 )( + T1 470 ) ) )
(or ( <= ( + T1 588 )  ( + T10 646 ) ) ( <= ( + T10 695 )( + T1 518 ) ) )
(or ( <= ( + T1 667 )  ( + T10 695 ) ) ( <= ( + T10 765 )( + T1 588 ) ) )
(or ( <= ( + T2 55 ) T3 ) ( <= ( + T3 14 ) T2 ) )
(or ( <= ( + T2 119 )  ( + T3 14 ) ) ( <= ( + T3 33 )( + T2 55 ) ) )
(or ( <= ( + T2 163 )  ( + T3 33 ) ) ( <= ( + T3 52 )( + T2 119 ) ) )
(or ( <= ( + T2 171 )  ( + T3 52 ) ) ( <= ( + T3 77 )( + T2 163 ) ) )
(or ( <= ( + T2 268 )  ( + T3 77 ) ) ( <= ( + T3 158 )( + T2 171 ) ) )
(or ( <= ( + T2 312 )  ( + T3 158 ) ) ( <= ( + T3 231 )( + T2 268 ) ) )
(or ( <= ( + T2 332 )  ( + T3 231 ) ) ( <= ( + T3 314 )( + T2 312 ) ) )
(or ( <= ( + T2 413 )  ( + T3 314 ) ) ( <= ( + T3 403 )( + T2 332 ) ) )
(or ( <= ( + T2 442 )  ( + T3 403 ) ) ( <= ( + T3 421 )( + T2 413 ) ) )
(or ( <= ( + T2 520 )  ( + T3 421 ) ) ( <= ( + T3 437 )( + T2 442 ) ) )
(or ( <= ( + T2 579 )  ( + T3 437 ) ) ( <= ( + T3 470 )( + T2 520 ) ) )
(or ( <= ( + T2 585 )  ( + T3 470 ) ) ( <= ( + T3 491 )( + T2 579 ) ) )
(or ( <= ( + T2 55 ) T4 ) ( <= ( + T4 89 ) T2 ) )
(or ( <= ( + T2 119 )  ( + T4 89 ) ) ( <= ( + T4 171 )( + T2 55 ) ) )
(or ( <= ( + T2 163 )  ( + T4 171 ) ) ( <= ( + T4 225 )( + T2 119 ) ) )
(or ( <= ( + T2 171 )  ( + T4 225 ) ) ( <= ( + T4 249 )( + T2 163 ) ) )
(or ( <= ( + T2 268 )  ( + T4 249 ) ) ( <= ( + T4 278 )( + T2 171 ) ) )
(or ( <= ( + T2 312 )  ( + T4 278 ) ) ( <= ( + T4 353 )( + T2 268 ) ) )
(or ( <= ( + T2 332 )  ( + T4 353 ) ) ( <= ( + T4 356 )( + T2 312 ) ) )
(or ( <= ( + T2 413 )  ( + T4 356 ) ) ( <= ( + T4 391 )( + T2 332 ) ) )
(or ( <= ( + T2 442 )  ( + T4 391 ) ) ( <= ( + T4 429 )( + T2 413 ) ) )
(or ( <= ( + T2 520 )  ( + T4 429 ) ) ( <= ( + T4 527 )( + T2 442 ) ) )
(or ( <= ( + T2 579 )  ( + T4 527 ) ) ( <= ( + T4 569 )( + T2 520 ) ) )
(or ( <= ( + T2 585 )  ( + T4 569 ) ) ( <= ( + T4 656 )( + T2 579 ) ) )
(or ( <= ( + T2 55 ) T5 ) ( <= ( + T5 93 ) T2 ) )
(or ( <= ( + T2 119 )  ( + T5 93 ) ) ( <= ( + T5 106 )( + T2 55 ) ) )
(or ( <= ( + T2 163 )  ( + T5 106 ) ) ( <= ( + T5 173 )( + T2 119 ) ) )
(or ( <= ( + T2 171 )  ( + T5 173 ) ) ( <= ( + T5 246 )( + T2 163 ) ) )
(or ( <= ( + T2 268 )  ( + T5 246 ) ) ( <= ( + T5 288 )( + T2 171 ) ) )
(or ( <= ( + T2 312 )  ( + T5 288 ) ) ( <= ( + T5 365 )( + T2 268 ) ) )
(or ( <= ( + T2 332 )  ( + T5 365 ) ) ( <= ( + T5 443 )( + T2 312 ) ) )
(or ( <= ( + T2 413 )  ( + T5 443 ) ) ( <= ( + T5 499 )( + T2 332 ) ) )
(or ( <= ( + T2 442 )  ( + T5 499 ) ) ( <= ( + T5 546 )( + T2 413 ) ) )
(or ( <= ( + T2 520 )  ( + T5 546 ) ) ( <= ( + T5 642 )( + T2 442 ) ) )
(or ( <= ( + T2 579 )  ( + T5 642 ) ) ( <= ( + T5 722 )( + T2 520 ) ) )
(or ( <= ( + T2 585 )  ( + T5 722 ) ) ( <= ( + T5 801 )( + T2 579 ) ) )
(or ( <= ( + T2 55 ) T6 ) ( <= ( + T6 68 ) T2 ) )
(or ( <= ( + T2 119 )  ( + T6 68 ) ) ( <= ( + T6 83 )( + T2 55 ) ) )
(or ( <= ( + T2 163 )  ( + T6 83 ) ) ( <= ( + T6 151 )( + T2 119 ) ) )
(or ( <= ( + T2 171 )  ( + T6 151 ) ) ( <= ( + T6 188 )( + T2 163 ) ) )
(or ( <= ( + T2 268 )  ( + T6 188 ) ) ( <= ( + T6 270 )( + T2 171 ) ) )
(or ( <= ( + T2 312 )  ( + T6 270 ) ) ( <= ( + T6 370 )( + T2 268 ) ) )
(or ( <= ( + T2 332 )  ( + T6 370 ) ) ( <= ( + T6 428 )( + T2 312 ) ) )
(or ( <= ( + T2 413 )  ( + T6 428 ) ) ( <= ( + T6 498 )( + T2 332 ) ) )
(or ( <= ( + T2 442 )  ( + T6 498 ) ) ( <= ( + T6 580 )( + T2 413 ) ) )
(or ( <= ( + T2 520 )  ( + T6 580 ) ) ( <= ( + T6 643 )( + T2 442 ) ) )
(or ( <= ( + T2 579 )  ( + T6 643 ) ) ( <= ( + T6 737 )( + T2 520 ) ) )
(or ( <= ( + T2 585 )  ( + T6 737 ) ) ( <= ( + T6 799 )( + T2 579 ) ) )
(or ( <= ( + T2 55 ) T7 ) ( <= ( + T7 89 ) T2 ) )
(or ( <= ( + T2 119 )  ( + T7 89 ) ) ( <= ( + T7 137 )( + T2 55 ) ) )
(or ( <= ( + T2 163 )  ( + T7 137 ) ) ( <= ( + T7 234 )( + T2 119 ) ) )
(or ( <= ( + T2 171 )  ( + T7 234 ) ) ( <= ( + T7 261 )( + T2 163 ) ) )
(or ( <= ( + T2 268 )  ( + T7 261 ) ) ( <= ( + T7 358 )( + T2 171 ) ) )
(or ( <= ( + T2 312 )  ( + T7 358 ) ) ( <= ( + T7 448 )( + T2 268 ) ) )
(or ( <= ( + T2 332 )  ( + T7 448 ) ) ( <= ( + T7 513 )( + T2 312 ) ) )
(or ( <= ( + T2 413 )  ( + T7 513 ) ) ( <= ( + T7 602 )( + T2 332 ) ) )
(or ( <= ( + T2 442 )  ( + T7 602 ) ) ( <= ( + T7 657 )( + T2 413 ) ) )
(or ( <= ( + T2 520 )  ( + T7 657 ) ) ( <= ( + T7 740 )( + T2 442 ) ) )
(or ( <= ( + T2 579 )  ( + T7 740 ) ) ( <= ( + T7 753 )( + T2 520 ) ) )
(or ( <= ( + T2 585 )  ( + T7 753 ) ) ( <= ( + T7 849 )( + T2 579 ) ) )
(or ( <= ( + T2 55 ) T8 ) ( <= ( + T8 11 ) T2 ) )
(or ( <= ( + T2 119 )  ( + T8 11 ) ) ( <= ( + T8 101 )( + T2 55 ) ) )
(or ( <= ( + T2 163 )  ( + T8 101 ) ) ( <= ( + T8 152 )( + T2 119 ) ) )
(or ( <= ( + T2 171 )  ( + T8 152 ) ) ( <= ( + T8 210 )( + T2 163 ) ) )
(or ( <= ( + T2 268 )  ( + T8 210 ) ) ( <= ( + T8 248 )( + T2 171 ) ) )
(or ( <= ( + T2 312 )  ( + T8 248 ) ) ( <= ( + T8 331 )( + T2 268 ) ) )
(or ( <= ( + T2 332 )  ( + T8 331 ) ) ( <= ( + T8 419 )( + T2 312 ) ) )
(or ( <= ( + T2 413 )  ( + T8 419 ) ) ( <= ( + T8 476 )( + T2 332 ) ) )
(or ( <= ( + T2 442 )  ( + T8 476 ) ) ( <= ( + T8 573 )( + T2 413 ) ) )
(or ( <= ( + T2 520 )  ( + T8 573 ) ) ( <= ( + T8 580 )( + T2 442 ) ) )
(or ( <= ( + T2 579 )  ( + T8 580 ) ) ( <= ( + T8 674 )( + T2 520 ) ) )
(or ( <= ( + T2 585 )  ( + T8 674 ) ) ( <= ( + T8 704 )( + T2 579 ) ) )
(or ( <= ( + T2 55 ) T9 ) ( <= ( + T9 7 ) T2 ) )
(or ( <= ( + T2 119 )  ( + T9 7 ) ) ( <= ( + T9 58 )( + T2 55 ) ) )
(or ( <= ( + T2 163 )  ( + T9 58 ) ) ( <= ( + T9 109 )( + T2 119 ) ) )
(or ( <= ( + T2 171 )  ( + T9 109 ) ) ( <= ( + T9 149 )( + T2 163 ) ) )
(or ( <= ( + T2 268 )  ( + T9 149 ) ) ( <= ( + T9 214 )( + T2 171 ) ) )
(or ( <= ( + T2 312 )  ( + T9 214 ) ) ( <= ( + T9 258 )( + T2 268 ) ) )
(or ( <= ( + T2 332 )  ( + T9 258 ) ) ( <= ( + T9 311 )( + T2 312 ) ) )
(or ( <= ( + T2 413 )  ( + T9 311 ) ) ( <= ( + T9 364 )( + T2 332 ) ) )
(or ( <= ( + T2 442 )  ( + T9 364 ) ) ( <= ( + T9 407 )( + T2 413 ) ) )
(or ( <= ( + T2 520 )  ( + T9 407 ) ) ( <= ( + T9 408 )( + T2 442 ) ) )
(or ( <= ( + T2 579 )  ( + T9 408 ) ) ( <= ( + T9 439 )( + T2 520 ) ) )
(or ( <= ( + T2 585 )  ( + T9 439 ) ) ( <= ( + T9 478 )( + T2 579 ) ) )
(or ( <= ( + T2 55 ) T10 ) ( <= ( + T10 91 ) T2 ) )
(or ( <= ( + T2 119 )  ( + T10 91 ) ) ( <= ( + T10 186 )( + T2 55 ) ) )
(or ( <= ( + T2 163 )  ( + T10 186 ) ) ( <= ( + T10 265 )( + T2 119 ) ) )
(or ( <= ( + T2 171 )  ( + T10 265 ) ) ( <= ( + T10 362 )( + T2 163 ) ) )
(or ( <= ( + T2 268 )  ( + T10 362 ) ) ( <= ( + T10 391 )( + T2 171 ) ) )
(or ( <= ( + T2 312 )  ( + T10 391 ) ) ( <= ( + T10 482 )( + T2 268 ) ) )
(or ( <= ( + T2 332 )  ( + T10 482 ) ) ( <= ( + T10 526 )( + T2 312 ) ) )
(or ( <= ( + T2 413 )  ( + T10 526 ) ) ( <= ( + T10 566 )( + T2 332 ) ) )
(or ( <= ( + T2 442 )  ( + T10 566 ) ) ( <= ( + T10 599 )( + T2 413 ) ) )
(or ( <= ( + T2 520 )  ( + T10 599 ) ) ( <= ( + T10 646 )( + T2 442 ) ) )
(or ( <= ( + T2 579 )  ( + T10 646 ) ) ( <= ( + T10 695 )( + T2 520 ) ) )
(or ( <= ( + T2 585 )  ( + T10 695 ) ) ( <= ( + T10 765 )( + T2 579 ) ) )
(or ( <= ( + T3 14 ) T4 ) ( <= ( + T4 89 ) T3 ) )
(or ( <= ( + T3 33 )  ( + T4 89 ) ) ( <= ( + T4 171 )( + T3 14 ) ) )
(or ( <= ( + T3 52 )  ( + T4 171 ) ) ( <= ( + T4 225 )( + T3 33 ) ) )
(or ( <= ( + T3 77 )  ( + T4 225 ) ) ( <= ( + T4 249 )( + T3 52 ) ) )
(or ( <= ( + T3 158 )  ( + T4 249 ) ) ( <= ( + T4 278 )( + T3 77 ) ) )
(or ( <= ( + T3 231 )  ( + T4 278 ) ) ( <= ( + T4 353 )( + T3 158 ) ) )
(or ( <= ( + T3 314 )  ( + T4 353 ) ) ( <= ( + T4 356 )( + T3 231 ) ) )
(or ( <= ( + T3 403 )  ( + T4 356 ) ) ( <= ( + T4 391 )( + T3 314 ) ) )
(or ( <= ( + T3 421 )  ( + T4 391 ) ) ( <= ( + T4 429 )( + T3 403 ) ) )
(or ( <= ( + T3 437 )  ( + T4 429 ) ) ( <= ( + T4 527 )( + T3 421 ) ) )
(or ( <= ( + T3 470 )  ( + T4 527 ) ) ( <= ( + T4 569 )( + T3 437 ) ) )
(or ( <= ( + T3 491 )  ( + T4 569 ) ) ( <= ( + T4 656 )( + T3 470 ) ) )
(or ( <= ( + T3 14 ) T5 ) ( <= ( + T5 93 ) T3 ) )
(or ( <= ( + T3 33 )  ( + T5 93 ) ) ( <= ( + T5 106 )( + T3 14 ) ) )
(or ( <= ( + T3 52 )  ( + T5 106 ) ) ( <= ( + T5 173 )( + T3 33 ) ) )
(or ( <= ( + T3 77 )  ( + T5 173 ) ) ( <= ( + T5 246 )( + T3 52 ) ) )
(or ( <= ( + T3 158 )  ( + T5 246 ) ) ( <= ( + T5 288 )( + T3 77 ) ) )
(or ( <= ( + T3 231 )  ( + T5 288 ) ) ( <= ( + T5 365 )( + T3 158 ) ) )
(or ( <= ( + T3 314 )  ( + T5 365 ) ) ( <= ( + T5 443 )( + T3 231 ) ) )
(or ( <= ( + T3 403 )  ( + T5 443 ) ) ( <= ( + T5 499 )( + T3 314 ) ) )
(or ( <= ( + T3 421 )  ( + T5 499 ) ) ( <= ( + T5 546 )( + T3 403 ) ) )
(or ( <= ( + T3 437 )  ( + T5 546 ) ) ( <= ( + T5 642 )( + T3 421 ) ) )
(or ( <= ( + T3 470 )  ( + T5 642 ) ) ( <= ( + T5 722 )( + T3 437 ) ) )
(or ( <= ( + T3 491 )  ( + T5 722 ) ) ( <= ( + T5 801 )( + T3 470 ) ) )
(or ( <= ( + T3 14 ) T6 ) ( <= ( + T6 68 ) T3 ) )
(or ( <= ( + T3 33 )  ( + T6 68 ) ) ( <= ( + T6 83 )( + T3 14 ) ) )
(or ( <= ( + T3 52 )  ( + T6 83 ) ) ( <= ( + T6 151 )( + T3 33 ) ) )
(or ( <= ( + T3 77 )  ( + T6 151 ) ) ( <= ( + T6 188 )( + T3 52 ) ) )
(or ( <= ( + T3 158 )  ( + T6 188 ) ) ( <= ( + T6 270 )( + T3 77 ) ) )
(or ( <= ( + T3 231 )  ( + T6 270 ) ) ( <= ( + T6 370 )( + T3 158 ) ) )
(or ( <= ( + T3 314 )  ( + T6 370 ) ) ( <= ( + T6 428 )( + T3 231 ) ) )
(or ( <= ( + T3 403 )  ( + T6 428 ) ) ( <= ( + T6 498 )( + T3 314 ) ) )
(or ( <= ( + T3 421 )  ( + T6 498 ) ) ( <= ( + T6 580 )( + T3 403 ) ) )
(or ( <= ( + T3 437 )  ( + T6 580 ) ) ( <= ( + T6 643 )( + T3 421 ) ) )
(or ( <= ( + T3 470 )  ( + T6 643 ) ) ( <= ( + T6 737 )( + T3 437 ) ) )
(or ( <= ( + T3 491 )  ( + T6 737 ) ) ( <= ( + T6 799 )( + T3 470 ) ) )
(or ( <= ( + T3 14 ) T7 ) ( <= ( + T7 89 ) T3 ) )
(or ( <= ( + T3 33 )  ( + T7 89 ) ) ( <= ( + T7 137 )( + T3 14 ) ) )
(or ( <= ( + T3 52 )  ( + T7 137 ) ) ( <= ( + T7 234 )( + T3 33 ) ) )
(or ( <= ( + T3 77 )  ( + T7 234 ) ) ( <= ( + T7 261 )( + T3 52 ) ) )
(or ( <= ( + T3 158 )  ( + T7 261 ) ) ( <= ( + T7 358 )( + T3 77 ) ) )
(or ( <= ( + T3 231 )  ( + T7 358 ) ) ( <= ( + T7 448 )( + T3 158 ) ) )
(or ( <= ( + T3 314 )  ( + T7 448 ) ) ( <= ( + T7 513 )( + T3 231 ) ) )
(or ( <= ( + T3 403 )  ( + T7 513 ) ) ( <= ( + T7 602 )( + T3 314 ) ) )
(or ( <= ( + T3 421 )  ( + T7 602 ) ) ( <= ( + T7 657 )( + T3 403 ) ) )
(or ( <= ( + T3 437 )  ( + T7 657 ) ) ( <= ( + T7 740 )( + T3 421 ) ) )
(or ( <= ( + T3 470 )  ( + T7 740 ) ) ( <= ( + T7 753 )( + T3 437 ) ) )
(or ( <= ( + T3 491 )  ( + T7 753 ) ) ( <= ( + T7 849 )( + T3 470 ) ) )
(or ( <= ( + T3 14 ) T8 ) ( <= ( + T8 11 ) T3 ) )
(or ( <= ( + T3 33 )  ( + T8 11 ) ) ( <= ( + T8 101 )( + T3 14 ) ) )
(or ( <= ( + T3 52 )  ( + T8 101 ) ) ( <= ( + T8 152 )( + T3 33 ) ) )
(or ( <= ( + T3 77 )  ( + T8 152 ) ) ( <= ( + T8 210 )( + T3 52 ) ) )
(or ( <= ( + T3 158 )  ( + T8 210 ) ) ( <= ( + T8 248 )( + T3 77 ) ) )
(or ( <= ( + T3 231 )  ( + T8 248 ) ) ( <= ( + T8 331 )( + T3 158 ) ) )
(or ( <= ( + T3 314 )  ( + T8 331 ) ) ( <= ( + T8 419 )( + T3 231 ) ) )
(or ( <= ( + T3 403 )  ( + T8 419 ) ) ( <= ( + T8 476 )( + T3 314 ) ) )
(or ( <= ( + T3 421 )  ( + T8 476 ) ) ( <= ( + T8 573 )( + T3 403 ) ) )
(or ( <= ( + T3 437 )  ( + T8 573 ) ) ( <= ( + T8 580 )( + T3 421 ) ) )
(or ( <= ( + T3 470 )  ( + T8 580 ) ) ( <= ( + T8 674 )( + T3 437 ) ) )
(or ( <= ( + T3 491 )  ( + T8 674 ) ) ( <= ( + T8 704 )( + T3 470 ) ) )
(or ( <= ( + T3 14 ) T9 ) ( <= ( + T9 7 ) T3 ) )
(or ( <= ( + T3 33 )  ( + T9 7 ) ) ( <= ( + T9 58 )( + T3 14 ) ) )
(or ( <= ( + T3 52 )  ( + T9 58 ) ) ( <= ( + T9 109 )( + T3 33 ) ) )
(or ( <= ( + T3 77 )  ( + T9 109 ) ) ( <= ( + T9 149 )( + T3 52 ) ) )
(or ( <= ( + T3 158 )  ( + T9 149 ) ) ( <= ( + T9 214 )( + T3 77 ) ) )
(or ( <= ( + T3 231 )  ( + T9 214 ) ) ( <= ( + T9 258 )( + T3 158 ) ) )
(or ( <= ( + T3 314 )  ( + T9 258 ) ) ( <= ( + T9 311 )( + T3 231 ) ) )
(or ( <= ( + T3 403 )  ( + T9 311 ) ) ( <= ( + T9 364 )( + T3 314 ) ) )
(or ( <= ( + T3 421 )  ( + T9 364 ) ) ( <= ( + T9 407 )( + T3 403 ) ) )
(or ( <= ( + T3 437 )  ( + T9 407 ) ) ( <= ( + T9 408 )( + T3 421 ) ) )
(or ( <= ( + T3 470 )  ( + T9 408 ) ) ( <= ( + T9 439 )( + T3 437 ) ) )
(or ( <= ( + T3 491 )  ( + T9 439 ) ) ( <= ( + T9 478 )( + T3 470 ) ) )
(or ( <= ( + T3 14 ) T10 ) ( <= ( + T10 91 ) T3 ) )
(or ( <= ( + T3 33 )  ( + T10 91 ) ) ( <= ( + T10 186 )( + T3 14 ) ) )
(or ( <= ( + T3 52 )  ( + T10 186 ) ) ( <= ( + T10 265 )( + T3 33 ) ) )
(or ( <= ( + T3 77 )  ( + T10 265 ) ) ( <= ( + T10 362 )( + T3 52 ) ) )
(or ( <= ( + T3 158 )  ( + T10 362 ) ) ( <= ( + T10 391 )( + T3 77 ) ) )
(or ( <= ( + T3 231 )  ( + T10 391 ) ) ( <= ( + T10 482 )( + T3 158 ) ) )
(or ( <= ( + T3 314 )  ( + T10 482 ) ) ( <= ( + T10 526 )( + T3 231 ) ) )
(or ( <= ( + T3 403 )  ( + T10 526 ) ) ( <= ( + T10 566 )( + T3 314 ) ) )
(or ( <= ( + T3 421 )  ( + T10 566 ) ) ( <= ( + T10 599 )( + T3 403 ) ) )
(or ( <= ( + T3 437 )  ( + T10 599 ) ) ( <= ( + T10 646 )( + T3 421 ) ) )
(or ( <= ( + T3 470 )  ( + T10 646 ) ) ( <= ( + T10 695 )( + T3 437 ) ) )
(or ( <= ( + T3 491 )  ( + T10 695 ) ) ( <= ( + T10 765 )( + T3 470 ) ) )
(or ( <= ( + T4 89 ) T5 ) ( <= ( + T5 93 ) T4 ) )
(or ( <= ( + T4 171 )  ( + T5 93 ) ) ( <= ( + T5 106 )( + T4 89 ) ) )
(or ( <= ( + T4 225 )  ( + T5 106 ) ) ( <= ( + T5 173 )( + T4 171 ) ) )
(or ( <= ( + T4 249 )  ( + T5 173 ) ) ( <= ( + T5 246 )( + T4 225 ) ) )
(or ( <= ( + T4 278 )  ( + T5 246 ) ) ( <= ( + T5 288 )( + T4 249 ) ) )
(or ( <= ( + T4 353 )  ( + T5 288 ) ) ( <= ( + T5 365 )( + T4 278 ) ) )
(or ( <= ( + T4 356 )  ( + T5 365 ) ) ( <= ( + T5 443 )( + T4 353 ) ) )
(or ( <= ( + T4 391 )  ( + T5 443 ) ) ( <= ( + T5 499 )( + T4 356 ) ) )
(or ( <= ( + T4 429 )  ( + T5 499 ) ) ( <= ( + T5 546 )( + T4 391 ) ) )
(or ( <= ( + T4 527 )  ( + T5 546 ) ) ( <= ( + T5 642 )( + T4 429 ) ) )
(or ( <= ( + T4 569 )  ( + T5 642 ) ) ( <= ( + T5 722 )( + T4 527 ) ) )
(or ( <= ( + T4 656 )  ( + T5 722 ) ) ( <= ( + T5 801 )( + T4 569 ) ) )
(or ( <= ( + T4 89 ) T6 ) ( <= ( + T6 68 ) T4 ) )
(or ( <= ( + T4 171 )  ( + T6 68 ) ) ( <= ( + T6 83 )( + T4 89 ) ) )
(or ( <= ( + T4 225 )  ( + T6 83 ) ) ( <= ( + T6 151 )( + T4 171 ) ) )
(or ( <= ( + T4 249 )  ( + T6 151 ) ) ( <= ( + T6 188 )( + T4 225 ) ) )
(or ( <= ( + T4 278 )  ( + T6 188 ) ) ( <= ( + T6 270 )( + T4 249 ) ) )
(or ( <= ( + T4 353 )  ( + T6 270 ) ) ( <= ( + T6 370 )( + T4 278 ) ) )
(or ( <= ( + T4 356 )  ( + T6 370 ) ) ( <= ( + T6 428 )( + T4 353 ) ) )
(or ( <= ( + T4 391 )  ( + T6 428 ) ) ( <= ( + T6 498 )( + T4 356 ) ) )
(or ( <= ( + T4 429 )  ( + T6 498 ) ) ( <= ( + T6 580 )( + T4 391 ) ) )
(or ( <= ( + T4 527 )  ( + T6 580 ) ) ( <= ( + T6 643 )( + T4 429 ) ) )
(or ( <= ( + T4 569 )  ( + T6 643 ) ) ( <= ( + T6 737 )( + T4 527 ) ) )
(or ( <= ( + T4 656 )  ( + T6 737 ) ) ( <= ( + T6 799 )( + T4 569 ) ) )
(or ( <= ( + T4 89 ) T7 ) ( <= ( + T7 89 ) T4 ) )
(or ( <= ( + T4 171 )  ( + T7 89 ) ) ( <= ( + T7 137 )( + T4 89 ) ) )
(or ( <= ( + T4 225 )  ( + T7 137 ) ) ( <= ( + T7 234 )( + T4 171 ) ) )
(or ( <= ( + T4 249 )  ( + T7 234 ) ) ( <= ( + T7 261 )( + T4 225 ) ) )
(or ( <= ( + T4 278 )  ( + T7 261 ) ) ( <= ( + T7 358 )( + T4 249 ) ) )
(or ( <= ( + T4 353 )  ( + T7 358 ) ) ( <= ( + T7 448 )( + T4 278 ) ) )
(or ( <= ( + T4 356 )  ( + T7 448 ) ) ( <= ( + T7 513 )( + T4 353 ) ) )
(or ( <= ( + T4 391 )  ( + T7 513 ) ) ( <= ( + T7 602 )( + T4 356 ) ) )
(or ( <= ( + T4 429 )  ( + T7 602 ) ) ( <= ( + T7 657 )( + T4 391 ) ) )
(or ( <= ( + T4 527 )  ( + T7 657 ) ) ( <= ( + T7 740 )( + T4 429 ) ) )
(or ( <= ( + T4 569 )  ( + T7 740 ) ) ( <= ( + T7 753 )( + T4 527 ) ) )
(or ( <= ( + T4 656 )  ( + T7 753 ) ) ( <= ( + T7 849 )( + T4 569 ) ) )
(or ( <= ( + T4 89 ) T8 ) ( <= ( + T8 11 ) T4 ) )
(or ( <= ( + T4 171 )  ( + T8 11 ) ) ( <= ( + T8 101 )( + T4 89 ) ) )
(or ( <= ( + T4 225 )  ( + T8 101 ) ) ( <= ( + T8 152 )( + T4 171 ) ) )
(or ( <= ( + T4 249 )  ( + T8 152 ) ) ( <= ( + T8 210 )( + T4 225 ) ) )
(or ( <= ( + T4 278 )  ( + T8 210 ) ) ( <= ( + T8 248 )( + T4 249 ) ) )
(or ( <= ( + T4 353 )  ( + T8 248 ) ) ( <= ( + T8 331 )( + T4 278 ) ) )
(or ( <= ( + T4 356 )  ( + T8 331 ) ) ( <= ( + T8 419 )( + T4 353 ) ) )
(or ( <= ( + T4 391 )  ( + T8 419 ) ) ( <= ( + T8 476 )( + T4 356 ) ) )
(or ( <= ( + T4 429 )  ( + T8 476 ) ) ( <= ( + T8 573 )( + T4 391 ) ) )
(or ( <= ( + T4 527 )  ( + T8 573 ) ) ( <= ( + T8 580 )( + T4 429 ) ) )
(or ( <= ( + T4 569 )  ( + T8 580 ) ) ( <= ( + T8 674 )( + T4 527 ) ) )
(or ( <= ( + T4 656 )  ( + T8 674 ) ) ( <= ( + T8 704 )( + T4 569 ) ) )
(or ( <= ( + T4 89 ) T9 ) ( <= ( + T9 7 ) T4 ) )
(or ( <= ( + T4 171 )  ( + T9 7 ) ) ( <= ( + T9 58 )( + T4 89 ) ) )
(or ( <= ( + T4 225 )  ( + T9 58 ) ) ( <= ( + T9 109 )( + T4 171 ) ) )
(or ( <= ( + T4 249 )  ( + T9 109 ) ) ( <= ( + T9 149 )( + T4 225 ) ) )
(or ( <= ( + T4 278 )  ( + T9 149 ) ) ( <= ( + T9 214 )( + T4 249 ) ) )
(or ( <= ( + T4 353 )  ( + T9 214 ) ) ( <= ( + T9 258 )( + T4 278 ) ) )
(or ( <= ( + T4 356 )  ( + T9 258 ) ) ( <= ( + T9 311 )( + T4 353 ) ) )
(or ( <= ( + T4 391 )  ( + T9 311 ) ) ( <= ( + T9 364 )( + T4 356 ) ) )
(or ( <= ( + T4 429 )  ( + T9 364 ) ) ( <= ( + T9 407 )( + T4 391 ) ) )
(or ( <= ( + T4 527 )  ( + T9 407 ) ) ( <= ( + T9 408 )( + T4 429 ) ) )
(or ( <= ( + T4 569 )  ( + T9 408 ) ) ( <= ( + T9 439 )( + T4 527 ) ) )
(or ( <= ( + T4 656 )  ( + T9 439 ) ) ( <= ( + T9 478 )( + T4 569 ) ) )
(or ( <= ( + T4 89 ) T10 ) ( <= ( + T10 91 ) T4 ) )
(or ( <= ( + T4 171 )  ( + T10 91 ) ) ( <= ( + T10 186 )( + T4 89 ) ) )
(or ( <= ( + T4 225 )  ( + T10 186 ) ) ( <= ( + T10 265 )( + T4 171 ) ) )
(or ( <= ( + T4 249 )  ( + T10 265 ) ) ( <= ( + T10 362 )( + T4 225 ) ) )
(or ( <= ( + T4 278 )  ( + T10 362 ) ) ( <= ( + T10 391 )( + T4 249 ) ) )
(or ( <= ( + T4 353 )  ( + T10 391 ) ) ( <= ( + T10 482 )( + T4 278 ) ) )
(or ( <= ( + T4 356 )  ( + T10 482 ) ) ( <= ( + T10 526 )( + T4 353 ) ) )
(or ( <= ( + T4 391 )  ( + T10 526 ) ) ( <= ( + T10 566 )( + T4 356 ) ) )
(or ( <= ( + T4 429 )  ( + T10 566 ) ) ( <= ( + T10 599 )( + T4 391 ) ) )
(or ( <= ( + T4 527 )  ( + T10 599 ) ) ( <= ( + T10 646 )( + T4 429 ) ) )
(or ( <= ( + T4 569 )  ( + T10 646 ) ) ( <= ( + T10 695 )( + T4 527 ) ) )
(or ( <= ( + T4 656 )  ( + T10 695 ) ) ( <= ( + T10 765 )( + T4 569 ) ) )
(or ( <= ( + T5 93 ) T6 ) ( <= ( + T6 68 ) T5 ) )
(or ( <= ( + T5 106 )  ( + T6 68 ) ) ( <= ( + T6 83 )( + T5 93 ) ) )
(or ( <= ( + T5 173 )  ( + T6 83 ) ) ( <= ( + T6 151 )( + T5 106 ) ) )
(or ( <= ( + T5 246 )  ( + T6 151 ) ) ( <= ( + T6 188 )( + T5 173 ) ) )
(or ( <= ( + T5 288 )  ( + T6 188 ) ) ( <= ( + T6 270 )( + T5 246 ) ) )
(or ( <= ( + T5 365 )  ( + T6 270 ) ) ( <= ( + T6 370 )( + T5 288 ) ) )
(or ( <= ( + T5 443 )  ( + T6 370 ) ) ( <= ( + T6 428 )( + T5 365 ) ) )
(or ( <= ( + T5 499 )  ( + T6 428 ) ) ( <= ( + T6 498 )( + T5 443 ) ) )
(or ( <= ( + T5 546 )  ( + T6 498 ) ) ( <= ( + T6 580 )( + T5 499 ) ) )
(or ( <= ( + T5 642 )  ( + T6 580 ) ) ( <= ( + T6 643 )( + T5 546 ) ) )
(or ( <= ( + T5 722 )  ( + T6 643 ) ) ( <= ( + T6 737 )( + T5 642 ) ) )
(or ( <= ( + T5 801 )  ( + T6 737 ) ) ( <= ( + T6 799 )( + T5 722 ) ) )
(or ( <= ( + T5 93 ) T7 ) ( <= ( + T7 89 ) T5 ) )
(or ( <= ( + T5 106 )  ( + T7 89 ) ) ( <= ( + T7 137 )( + T5 93 ) ) )
(or ( <= ( + T5 173 )  ( + T7 137 ) ) ( <= ( + T7 234 )( + T5 106 ) ) )
(or ( <= ( + T5 246 )  ( + T7 234 ) ) ( <= ( + T7 261 )( + T5 173 ) ) )
(or ( <= ( + T5 288 )  ( + T7 261 ) ) ( <= ( + T7 358 )( + T5 246 ) ) )
(or ( <= ( + T5 365 )  ( + T7 358 ) ) ( <= ( + T7 448 )( + T5 288 ) ) )
(or ( <= ( + T5 443 )  ( + T7 448 ) ) ( <= ( + T7 513 )( + T5 365 ) ) )
(or ( <= ( + T5 499 )  ( + T7 513 ) ) ( <= ( + T7 602 )( + T5 443 ) ) )
(or ( <= ( + T5 546 )  ( + T7 602 ) ) ( <= ( + T7 657 )( + T5 499 ) ) )
(or ( <= ( + T5 642 )  ( + T7 657 ) ) ( <= ( + T7 740 )( + T5 546 ) ) )
(or ( <= ( + T5 722 )  ( + T7 740 ) ) ( <= ( + T7 753 )( + T5 642 ) ) )
(or ( <= ( + T5 801 )  ( + T7 753 ) ) ( <= ( + T7 849 )( + T5 722 ) ) )
(or ( <= ( + T5 93 ) T8 ) ( <= ( + T8 11 ) T5 ) )
(or ( <= ( + T5 106 )  ( + T8 11 ) ) ( <= ( + T8 101 )( + T5 93 ) ) )
(or ( <= ( + T5 173 )  ( + T8 101 ) ) ( <= ( + T8 152 )( + T5 106 ) ) )
(or ( <= ( + T5 246 )  ( + T8 152 ) ) ( <= ( + T8 210 )( + T5 173 ) ) )
(or ( <= ( + T5 288 )  ( + T8 210 ) ) ( <= ( + T8 248 )( + T5 246 ) ) )
(or ( <= ( + T5 365 )  ( + T8 248 ) ) ( <= ( + T8 331 )( + T5 288 ) ) )
(or ( <= ( + T5 443 )  ( + T8 331 ) ) ( <= ( + T8 419 )( + T5 365 ) ) )
(or ( <= ( + T5 499 )  ( + T8 419 ) ) ( <= ( + T8 476 )( + T5 443 ) ) )
(or ( <= ( + T5 546 )  ( + T8 476 ) ) ( <= ( + T8 573 )( + T5 499 ) ) )
(or ( <= ( + T5 642 )  ( + T8 573 ) ) ( <= ( + T8 580 )( + T5 546 ) ) )
(or ( <= ( + T5 722 )  ( + T8 580 ) ) ( <= ( + T8 674 )( + T5 642 ) ) )
(or ( <= ( + T5 801 )  ( + T8 674 ) ) ( <= ( + T8 704 )( + T5 722 ) ) )
(or ( <= ( + T5 93 ) T9 ) ( <= ( + T9 7 ) T5 ) )
(or ( <= ( + T5 106 )  ( + T9 7 ) ) ( <= ( + T9 58 )( + T5 93 ) ) )
(or ( <= ( + T5 173 )  ( + T9 58 ) ) ( <= ( + T9 109 )( + T5 106 ) ) )
(or ( <= ( + T5 246 )  ( + T9 109 ) ) ( <= ( + T9 149 )( + T5 173 ) ) )
(or ( <= ( + T5 288 )  ( + T9 149 ) ) ( <= ( + T9 214 )( + T5 246 ) ) )
(or ( <= ( + T5 365 )  ( + T9 214 ) ) ( <= ( + T9 258 )( + T5 288 ) ) )
(or ( <= ( + T5 443 )  ( + T9 258 ) ) ( <= ( + T9 311 )( + T5 365 ) ) )
(or ( <= ( + T5 499 )  ( + T9 311 ) ) ( <= ( + T9 364 )( + T5 443 ) ) )
(or ( <= ( + T5 546 )  ( + T9 364 ) ) ( <= ( + T9 407 )( + T5 499 ) ) )
(or ( <= ( + T5 642 )  ( + T9 407 ) ) ( <= ( + T9 408 )( + T5 546 ) ) )
(or ( <= ( + T5 722 )  ( + T9 408 ) ) ( <= ( + T9 439 )( + T5 642 ) ) )
(or ( <= ( + T5 801 )  ( + T9 439 ) ) ( <= ( + T9 478 )( + T5 722 ) ) )
(or ( <= ( + T5 93 ) T10 ) ( <= ( + T10 91 ) T5 ) )
(or ( <= ( + T5 106 )  ( + T10 91 ) ) ( <= ( + T10 186 )( + T5 93 ) ) )
(or ( <= ( + T5 173 )  ( + T10 186 ) ) ( <= ( + T10 265 )( + T5 106 ) ) )
(or ( <= ( + T5 246 )  ( + T10 265 ) ) ( <= ( + T10 362 )( + T5 173 ) ) )
(or ( <= ( + T5 288 )  ( + T10 362 ) ) ( <= ( + T10 391 )( + T5 246 ) ) )
(or ( <= ( + T5 365 )  ( + T10 391 ) ) ( <= ( + T10 482 )( + T5 288 ) ) )
(or ( <= ( + T5 443 )  ( + T10 482 ) ) ( <= ( + T10 526 )( + T5 365 ) ) )
(or ( <= ( + T5 499 )  ( + T10 526 ) ) ( <= ( + T10 566 )( + T5 443 ) ) )
(or ( <= ( + T5 546 )  ( + T10 566 ) ) ( <= ( + T10 599 )( + T5 499 ) ) )
(or ( <= ( + T5 642 )  ( + T10 599 ) ) ( <= ( + T10 646 )( + T5 546 ) ) )
(or ( <= ( + T5 722 )  ( + T10 646 ) ) ( <= ( + T10 695 )( + T5 642 ) ) )
(or ( <= ( + T5 801 )  ( + T10 695 ) ) ( <= ( + T10 765 )( + T5 722 ) ) )
(or ( <= ( + T6 68 ) T7 ) ( <= ( + T7 89 ) T6 ) )
(or ( <= ( + T6 83 )  ( + T7 89 ) ) ( <= ( + T7 137 )( + T6 68 ) ) )
(or ( <= ( + T6 151 )  ( + T7 137 ) ) ( <= ( + T7 234 )( + T6 83 ) ) )
(or ( <= ( + T6 188 )  ( + T7 234 ) ) ( <= ( + T7 261 )( + T6 151 ) ) )
(or ( <= ( + T6 270 )  ( + T7 261 ) ) ( <= ( + T7 358 )( + T6 188 ) ) )
(or ( <= ( + T6 370 )  ( + T7 358 ) ) ( <= ( + T7 448 )( + T6 270 ) ) )
(or ( <= ( + T6 428 )  ( + T7 448 ) ) ( <= ( + T7 513 )( + T6 370 ) ) )
(or ( <= ( + T6 498 )  ( + T7 513 ) ) ( <= ( + T7 602 )( + T6 428 ) ) )
(or ( <= ( + T6 580 )  ( + T7 602 ) ) ( <= ( + T7 657 )( + T6 498 ) ) )
(or ( <= ( + T6 643 )  ( + T7 657 ) ) ( <= ( + T7 740 )( + T6 580 ) ) )
(or ( <= ( + T6 737 )  ( + T7 740 ) ) ( <= ( + T7 753 )( + T6 643 ) ) )
(or ( <= ( + T6 799 )  ( + T7 753 ) ) ( <= ( + T7 849 )( + T6 737 ) ) )
(or ( <= ( + T6 68 ) T8 ) ( <= ( + T8 11 ) T6 ) )
(or ( <= ( + T6 83 )  ( + T8 11 ) ) ( <= ( + T8 101 )( + T6 68 ) ) )
(or ( <= ( + T6 151 )  ( + T8 101 ) ) ( <= ( + T8 152 )( + T6 83 ) ) )
(or ( <= ( + T6 188 )  ( + T8 152 ) ) ( <= ( + T8 210 )( + T6 151 ) ) )
(or ( <= ( + T6 270 )  ( + T8 210 ) ) ( <= ( + T8 248 )( + T6 188 ) ) )
(or ( <= ( + T6 370 )  ( + T8 248 ) ) ( <= ( + T8 331 )( + T6 270 ) ) )
(or ( <= ( + T6 428 )  ( + T8 331 ) ) ( <= ( + T8 419 )( + T6 370 ) ) )
(or ( <= ( + T6 498 )  ( + T8 419 ) ) ( <= ( + T8 476 )( + T6 428 ) ) )
(or ( <= ( + T6 580 )  ( + T8 476 ) ) ( <= ( + T8 573 )( + T6 498 ) ) )
(or ( <= ( + T6 643 )  ( + T8 573 ) ) ( <= ( + T8 580 )( + T6 580 ) ) )
(or ( <= ( + T6 737 )  ( + T8 580 ) ) ( <= ( + T8 674 )( + T6 643 ) ) )
(or ( <= ( + T6 799 )  ( + T8 674 ) ) ( <= ( + T8 704 )( + T6 737 ) ) )
(or ( <= ( + T6 68 ) T9 ) ( <= ( + T9 7 ) T6 ) )
(or ( <= ( + T6 83 )  ( + T9 7 ) ) ( <= ( + T9 58 )( + T6 68 ) ) )
(or ( <= ( + T6 151 )  ( + T9 58 ) ) ( <= ( + T9 109 )( + T6 83 ) ) )
(or ( <= ( + T6 188 )  ( + T9 109 ) ) ( <= ( + T9 149 )( + T6 151 ) ) )
(or ( <= ( + T6 270 )  ( + T9 149 ) ) ( <= ( + T9 214 )( + T6 188 ) ) )
(or ( <= ( + T6 370 )  ( + T9 214 ) ) ( <= ( + T9 258 )( + T6 270 ) ) )
(or ( <= ( + T6 428 )  ( + T9 258 ) ) ( <= ( + T9 311 )( + T6 370 ) ) )
(or ( <= ( + T6 498 )  ( + T9 311 ) ) ( <= ( + T9 364 )( + T6 428 ) ) )
(or ( <= ( + T6 580 )  ( + T9 364 ) ) ( <= ( + T9 407 )( + T6 498 ) ) )
(or ( <= ( + T6 643 )  ( + T9 407 ) ) ( <= ( + T9 408 )( + T6 580 ) ) )
(or ( <= ( + T6 737 )  ( + T9 408 ) ) ( <= ( + T9 439 )( + T6 643 ) ) )
(or ( <= ( + T6 799 )  ( + T9 439 ) ) ( <= ( + T9 478 )( + T6 737 ) ) )
(or ( <= ( + T6 68 ) T10 ) ( <= ( + T10 91 ) T6 ) )
(or ( <= ( + T6 83 )  ( + T10 91 ) ) ( <= ( + T10 186 )( + T6 68 ) ) )
(or ( <= ( + T6 151 )  ( + T10 186 ) ) ( <= ( + T10 265 )( + T6 83 ) ) )
(or ( <= ( + T6 188 )  ( + T10 265 ) ) ( <= ( + T10 362 )( + T6 151 ) ) )
(or ( <= ( + T6 270 )  ( + T10 362 ) ) ( <= ( + T10 391 )( + T6 188 ) ) )
(or ( <= ( + T6 370 )  ( + T10 391 ) ) ( <= ( + T10 482 )( + T6 270 ) ) )
(or ( <= ( + T6 428 )  ( + T10 482 ) ) ( <= ( + T10 526 )( + T6 370 ) ) )
(or ( <= ( + T6 498 )  ( + T10 526 ) ) ( <= ( + T10 566 )( + T6 428 ) ) )
(or ( <= ( + T6 580 )  ( + T10 566 ) ) ( <= ( + T10 599 )( + T6 498 ) ) )
(or ( <= ( + T6 643 )  ( + T10 599 ) ) ( <= ( + T10 646 )( + T6 580 ) ) )
(or ( <= ( + T6 737 )  ( + T10 646 ) ) ( <= ( + T10 695 )( + T6 643 ) ) )
(or ( <= ( + T6 799 )  ( + T10 695 ) ) ( <= ( + T10 765 )( + T6 737 ) ) )
(or ( <= ( + T7 89 ) T8 ) ( <= ( + T8 11 ) T7 ) )
(or ( <= ( + T7 137 )  ( + T8 11 ) ) ( <= ( + T8 101 )( + T7 89 ) ) )
(or ( <= ( + T7 234 )  ( + T8 101 ) ) ( <= ( + T8 152 )( + T7 137 ) ) )
(or ( <= ( + T7 261 )  ( + T8 152 ) ) ( <= ( + T8 210 )( + T7 234 ) ) )
(or ( <= ( + T7 358 )  ( + T8 210 ) ) ( <= ( + T8 248 )( + T7 261 ) ) )
(or ( <= ( + T7 448 )  ( + T8 248 ) ) ( <= ( + T8 331 )( + T7 358 ) ) )
(or ( <= ( + T7 513 )  ( + T8 331 ) ) ( <= ( + T8 419 )( + T7 448 ) ) )
(or ( <= ( + T7 602 )  ( + T8 419 ) ) ( <= ( + T8 476 )( + T7 513 ) ) )
(or ( <= ( + T7 657 )  ( + T8 476 ) ) ( <= ( + T8 573 )( + T7 602 ) ) )
(or ( <= ( + T7 740 )  ( + T8 573 ) ) ( <= ( + T8 580 )( + T7 657 ) ) )
(or ( <= ( + T7 753 )  ( + T8 580 ) ) ( <= ( + T8 674 )( + T7 740 ) ) )
(or ( <= ( + T7 849 )  ( + T8 674 ) ) ( <= ( + T8 704 )( + T7 753 ) ) )
(or ( <= ( + T7 89 ) T9 ) ( <= ( + T9 7 ) T7 ) )
(or ( <= ( + T7 137 )  ( + T9 7 ) ) ( <= ( + T9 58 )( + T7 89 ) ) )
(or ( <= ( + T7 234 )  ( + T9 58 ) ) ( <= ( + T9 109 )( + T7 137 ) ) )
(or ( <= ( + T7 261 )  ( + T9 109 ) ) ( <= ( + T9 149 )( + T7 234 ) ) )
(or ( <= ( + T7 358 )  ( + T9 149 ) ) ( <= ( + T9 214 )( + T7 261 ) ) )
(or ( <= ( + T7 448 )  ( + T9 214 ) ) ( <= ( + T9 258 )( + T7 358 ) ) )
(or ( <= ( + T7 513 )  ( + T9 258 ) ) ( <= ( + T9 311 )( + T7 448 ) ) )
(or ( <= ( + T7 602 )  ( + T9 311 ) ) ( <= ( + T9 364 )( + T7 513 ) ) )
(or ( <= ( + T7 657 )  ( + T9 364 ) ) ( <= ( + T9 407 )( + T7 602 ) ) )
(or ( <= ( + T7 740 )  ( + T9 407 ) ) ( <= ( + T9 408 )( + T7 657 ) ) )
(or ( <= ( + T7 753 )  ( + T9 408 ) ) ( <= ( + T9 439 )( + T7 740 ) ) )
(or ( <= ( + T7 849 )  ( + T9 439 ) ) ( <= ( + T9 478 )( + T7 753 ) ) )
(or ( <= ( + T7 89 ) T10 ) ( <= ( + T10 91 ) T7 ) )
(or ( <= ( + T7 137 )  ( + T10 91 ) ) ( <= ( + T10 186 )( + T7 89 ) ) )
(or ( <= ( + T7 234 )  ( + T10 186 ) ) ( <= ( + T10 265 )( + T7 137 ) ) )
(or ( <= ( + T7 261 )  ( + T10 265 ) ) ( <= ( + T10 362 )( + T7 234 ) ) )
(or ( <= ( + T7 358 )  ( + T10 362 ) ) ( <= ( + T10 391 )( + T7 261 ) ) )
(or ( <= ( + T7 448 )  ( + T10 391 ) ) ( <= ( + T10 482 )( + T7 358 ) ) )
(or ( <= ( + T7 513 )  ( + T10 482 ) ) ( <= ( + T10 526 )( + T7 448 ) ) )
(or ( <= ( + T7 602 )  ( + T10 526 ) ) ( <= ( + T10 566 )( + T7 513 ) ) )
(or ( <= ( + T7 657 )  ( + T10 566 ) ) ( <= ( + T10 599 )( + T7 602 ) ) )
(or ( <= ( + T7 740 )  ( + T10 599 ) ) ( <= ( + T10 646 )( + T7 657 ) ) )
(or ( <= ( + T7 753 )  ( + T10 646 ) ) ( <= ( + T10 695 )( + T7 740 ) ) )
(or ( <= ( + T7 849 )  ( + T10 695 ) ) ( <= ( + T10 765 )( + T7 753 ) ) )
(or ( <= ( + T8 11 ) T9 ) ( <= ( + T9 7 ) T8 ) )
(or ( <= ( + T8 101 )  ( + T9 7 ) ) ( <= ( + T9 58 )( + T8 11 ) ) )
(or ( <= ( + T8 152 )  ( + T9 58 ) ) ( <= ( + T9 109 )( + T8 101 ) ) )
(or ( <= ( + T8 210 )  ( + T9 109 ) ) ( <= ( + T9 149 )( + T8 152 ) ) )
(or ( <= ( + T8 248 )  ( + T9 149 ) ) ( <= ( + T9 214 )( + T8 210 ) ) )
(or ( <= ( + T8 331 )  ( + T9 214 ) ) ( <= ( + T9 258 )( + T8 248 ) ) )
(or ( <= ( + T8 419 )  ( + T9 258 ) ) ( <= ( + T9 311 )( + T8 331 ) ) )
(or ( <= ( + T8 476 )  ( + T9 311 ) ) ( <= ( + T9 364 )( + T8 419 ) ) )
(or ( <= ( + T8 573 )  ( + T9 364 ) ) ( <= ( + T9 407 )( + T8 476 ) ) )
(or ( <= ( + T8 580 )  ( + T9 407 ) ) ( <= ( + T9 408 )( + T8 573 ) ) )
(or ( <= ( + T8 674 )  ( + T9 408 ) ) ( <= ( + T9 439 )( + T8 580 ) ) )
(or ( <= ( + T8 704 )  ( + T9 439 ) ) ( <= ( + T9 478 )( + T8 674 ) ) )
(or ( <= ( + T8 11 ) T10 ) ( <= ( + T10 91 ) T8 ) )
(or ( <= ( + T8 101 )  ( + T10 91 ) ) ( <= ( + T10 186 )( + T8 11 ) ) )
(or ( <= ( + T8 152 )  ( + T10 186 ) ) ( <= ( + T10 265 )( + T8 101 ) ) )
(or ( <= ( + T8 210 )  ( + T10 265 ) ) ( <= ( + T10 362 )( + T8 152 ) ) )
(or ( <= ( + T8 248 )  ( + T10 362 ) ) ( <= ( + T10 391 )( + T8 210 ) ) )
(or ( <= ( + T8 331 )  ( + T10 391 ) ) ( <= ( + T10 482 )( + T8 248 ) ) )
(or ( <= ( + T8 419 )  ( + T10 482 ) ) ( <= ( + T10 526 )( + T8 331 ) ) )
(or ( <= ( + T8 476 )  ( + T10 526 ) ) ( <= ( + T10 566 )( + T8 419 ) ) )
(or ( <= ( + T8 573 )  ( + T10 566 ) ) ( <= ( + T10 599 )( + T8 476 ) ) )
(or ( <= ( + T8 580 )  ( + T10 599 ) ) ( <= ( + T10 646 )( + T8 573 ) ) )
(or ( <= ( + T8 674 )  ( + T10 646 ) ) ( <= ( + T10 695 )( + T8 580 ) ) )
(or ( <= ( + T8 704 )  ( + T10 695 ) ) ( <= ( + T10 765 )( + T8 674 ) ) )
(or ( <= ( + T9 7 ) T10 ) ( <= ( + T10 91 ) T9 ) )
(or ( <= ( + T9 58 )  ( + T10 91 ) ) ( <= ( + T10 186 )( + T9 7 ) ) )
(or ( <= ( + T9 109 )  ( + T10 186 ) ) ( <= ( + T10 265 )( + T9 58 ) ) )
(or ( <= ( + T9 149 )  ( + T10 265 ) ) ( <= ( + T10 362 )( + T9 109 ) ) )
(or ( <= ( + T9 214 )  ( + T10 362 ) ) ( <= ( + T10 391 )( + T9 149 ) ) )
(or ( <= ( + T9 258 )  ( + T10 391 ) ) ( <= ( + T10 482 )( + T9 214 ) ) )
(or ( <= ( + T9 311 )  ( + T10 482 ) ) ( <= ( + T10 526 )( + T9 258 ) ) )
(or ( <= ( + T9 364 )  ( + T10 526 ) ) ( <= ( + T10 566 )( + T9 311 ) ) )
(or ( <= ( + T9 407 )  ( + T10 566 ) ) ( <= ( + T10 599 )( + T9 364 ) ) )
(or ( <= ( + T9 408 )  ( + T10 599 ) ) ( <= ( + T10 646 )( + T9 407 ) ) )
(or ( <= ( + T9 439 )  ( + T10 646 ) ) ( <= ( + T10 695 )( + T9 408 ) ) )
(or ( <= ( + T9 478 )  ( + T10 695 ) ) ( <= ( + T10 765 )( + T9 439 ) ) )
( <= ( + T1 667 ) Z)
( <= ( + T2 585 ) Z)
( <= ( + T3 491 ) Z)
( <= ( + T4 656 ) Z)
( <= ( + T5 801 ) Z)
( <= ( + T6 799 ) Z)
( <= ( + T7 849 ) Z)
( <= ( + T8 704 ) Z)
( <= ( + T9 478 ) Z)
( <= ( + T10 765 ) Z)
( >= T1 0 )
( >= T2 0 )
( >= T3 0 )
( >= T4 0 )
( >= T5 0 )
( >= T6 0 )
( >= T7 0 )
( >= T8 0 )
( >= T9 0 )
( >= T10 0 )
) )
(minimize Z)
(check-sat)